WARNING: for repeatability, setting FPU to use double precision
============================[ Problem Statistics ]=============================
|                                                                             |
|  Number of variables:           100                                         |
|  Number of clauses:             449                                         |
|  Parse time:                   0.00 s                                       |
|  Eliminated clauses:           0.00 Mb                                      |
|  Simplification time:          0.00 s                                       |
|                                                                             |
============================[ Search Statistics ]==============================
| Conflicts |          ORIGINAL         |          LEARNT          | Progress |
|           |    Vars  Clauses Literals |    Limit  Clauses Lit/Cl |          |
===============================================================================
|       100 |      98      446     1349 |      163      100      7 |  0.010 % |
|       250 |      98      446     1349 |      179      164      6 |  0.020 % |
===============================================================================
restarts              : 3
conflicts             : 307            (82460 /sec)
decisions             : 379            (0.00 % random) (101800 /sec)
propagations          : 7069           (1898738 /sec)
conflict literals     : 1858           (19.64 % deleted)
Memory used           : 13.00 MB
CPU time              : 0.003723 s

SATISFIABLE
